row=8;
Board=[|0,0,5,3,0,6,9,4,7,0|0,0,0,0,4,0,3,0,0,8|3,1,5,0,0,2,4,0,9,0|10,0,0,2,0,5,9,0,1,6|9,8,1,10,7,2,0,0,0,0|0,0,6,0,0,10,0,7,0,0|10,0,1,4,3,0,2,0,0,7|0,0,2,0,10,0,0,0,1,8|];
bottom=[2419200,103680,8100,33600,725760,360000,87480,4064256,7875
,602112]